Traveling Salesman Problem/TSP_generados/Aleatorio1621103238_5.tsp
NAME: Aleatorio1621103238_5.tsp
COMMENT: Randomly generated scenario
TYPE: TSP
DIMENSION: 5
EDGE_WEIGHT_TYPE: ATT
NODE_COORD_SECTION
1 20.41 32.39
2 13.52 15.02
3 31.32 41.21
4 43.25 3.12
5 15.25 46.96
