Traveling Salesman Problem/TSP_generados/Aleatorio1621103238_5.opt.tour
NAME: Aleatorio1621103238_5.opt.tour
COMMENT: Optimal solution for Aleatorio1621103238_5 (123.14879239129323)
TYPE: TOUR
DIMENSION: 5
TOUR_SECTION
1 2 4 3 5
-1
EOF
